problems/csplib-prob056/sonet-models/noch/O2/lingeling/model_4_1-s3ring15-solution000001.eprime-solution
language ESSENCE' 1.0

letting network_ExplicitWithFlagsR4_Flags be [1, 1, 1, 1, 1, 1, 1; int(1..7)]
letting network_ExplicitWithFlagsR4_Values_ExplicitVarSizeWithFlags_Flags be
        [[false, false, false, false, false; int(1..5)], [true, false, false, false, false; int(1..5)],
         [true, true, true, true, false; int(1..5)], [true, true, true, true, false; int(1..5)],
         [true, true, true, true, true; int(1..5)], [true, true, true, true, true; int(1..5)],
         [true, true, true, true, true; int(1..5)]; int(1..7)]
letting network_ExplicitWithFlagsR4_Values_ExplicitVarSizeWithFlags_Values be
        [[1, 1, 1, 1, 1; int(1..5)], [1, 1, 1, 1, 1; int(1..5)], [1, 2, 9, 11, 1; int(1..5)],
         [4, 5, 6, 7, 1; int(1..5)], [2, 3, 5, 10, 13; int(1..5)], [4, 8, 11, 12, 13; int(1..5)],
         [7, 8, 9, 10, 12; int(1..5)]; int(1..7)]
