problems/csplib-prob056/sonet-models/noch/O2/lingeling/model_4_1-s3ring15-solution000001.solution
language Essence 1.3

letting network be mset({}, {1}, {1, 2, 9, 11}, {2, 3, 5, 10, 13}, {4, 5, 6, 7}, {4, 8, 11, 12, 13}, {7, 8, 9, 10, 12})
$ Here is a simple "visualisation" for the value above.
$ 
$  1
$  1  2  9 11
$  2  3  5 10 13
$  4  5  6  7
$  4  8 11 12 13
$  7  8  9 10 12

